\ Model RU-StripPacking-10
\ LP format - for model browsing. Use MPS format to capture full model detail.
Minimize
  h
Subject To
 Height[0]: - c[0,1] + h >= 10
 Height[1]: - c[1,1] + h >= 12
 Height[2]: - c[2,1] + h >= 5.5
 Height[3]: - c[3,1] + h >= 15
 Height[4]: - c[4,1] + h >= 21
 Height[5]: - c[5,1] + h >= 8.5
 Height[6]: - c[6,1] + h >= 6.5
 Height[7]: - c[7,1] + h >= 32
 Height[8]: - c[8,1] + h >= 35.5
 Height[9]: - c[9,1] + h >= 16
 LB[0,1,0]: c[1,0] - 28 delta[0,1,0] >= 8
 LB[0,1,1]: c[1,1] - 29 delta[0,1,1] >= 12
 LB[0,2,0]: c[2,0] - 28 delta[0,2,0] >= 14.5
 LB[0,2,1]: c[2,1] - 29 delta[0,2,1] >= 5.5
 LB[0,3,0]: c[3,0] - 28 delta[0,3,0] >= 18
 LB[0,3,1]: c[3,1] - 29 delta[0,3,1] >= 15
 LB[0,4,0]: c[4,0] - 28 delta[0,4,0] >= 42.5
 LB[0,4,1]: c[4,1] - 29 delta[0,4,1] >= 21
 LB[0,5,0]: c[5,0] - 28 delta[0,5,0] >= 23
 LB[0,5,1]: c[5,1] - 29 delta[0,5,1] >= 8.5
 LB[0,6,0]: c[6,0] - 28 delta[0,6,0] >= 26
 LB[0,6,1]: c[6,1] - 29 delta[0,6,1] >= 6.5
 LB[0,7,0]: c[7,0] - 28 delta[0,7,0] >= 35
 LB[0,7,1]: c[7,1] - 29 delta[0,7,1] >= 16
 LB[0,8,0]: c[8,0] - 28 delta[0,8,0] >= 40
 LB[0,8,1]: c[8,1] - 29 delta[0,8,1] >= 35.5
 LB[0,9,0]: c[9,0] - 28 delta[0,9,0] >= 12
 LB[0,9,1]: c[9,1] - 29 delta[0,9,1] >= 39
 LB[1,0,0]: c[0,0] - 19 delta[1,0,0] >= 20
 LB[1,0,1]: c[0,1] - 24 delta[1,0,1] >= 19
 LB[1,2,0]: c[2,0] - 31 delta[1,2,0] >= 14.5
 LB[1,2,1]: c[2,1] - 24 delta[1,2,1] >= 5.5
 LB[1,3,0]: c[3,0] - 21 delta[1,3,0] >= 18
 LB[1,3,1]: c[3,1] - 24 delta[1,3,1] >= 15
 LB[1,4,0]: c[4,0] - 16 delta[1,4,0] >= 42.5
 LB[1,4,1]: c[4,1] - 24 delta[1,4,1] >= 21
 LB[1,5,0]: c[5,0] - 31 delta[1,5,0] >= 23
 LB[1,5,1]: c[5,1] - 24 delta[1,5,1] >= 8.5
 LB[1,6,0]: c[6,0] - 17 delta[1,6,0] >= 26
 LB[1,6,1]: c[6,1] - 24 delta[1,6,1] >= 6.5
 LB[1,7,0]: c[7,0] - 16 delta[1,7,0] >= 35
 LB[1,7,1]: c[7,1] - 24 delta[1,7,1] >= 16
 LB[1,8,0]: c[8,0] - 31 delta[1,8,0] >= 40
 LB[1,8,1]: c[8,1] - 24 delta[1,8,1] >= 35.5
 LB[1,9,0]: c[9,0] - 31 delta[1,9,0] >= 12
 LB[1,9,1]: c[9,1] - 24 delta[1,9,1] >= 39
 LB[2,0,0]: c[0,0] - 29 delta[2,0,0] >= 20
 LB[2,0,1]: c[0,1] - 11 delta[2,0,1] >= 19
 LB[2,1,0]: c[1,0] - 29 delta[2,1,0] >= 8
 LB[2,1,1]: c[1,1] - 11 delta[2,1,1] >= 12
 LB[2,3,0]: c[3,0] - 29 delta[2,3,0] >= 18
 LB[2,3,1]: c[3,1] - 11 delta[2,3,1] >= 15
 LB[2,4,0]: c[4,0] - 29 delta[2,4,0] >= 42.5
 LB[2,4,1]: c[4,1] - 11 delta[2,4,1] >= 21
 LB[2,5,0]: c[5,0] - 29 delta[2,5,0] >= 23
 LB[2,5,1]: c[5,1] - 11 delta[2,5,1] >= 8.5
 LB[2,6,0]: c[6,0] - 29 delta[2,6,0] >= 26
 LB[2,6,1]: c[6,1] - 11 delta[2,6,1] >= 6.5
 LB[2,7,0]: c[7,0] - 29 delta[2,7,0] >= 35
 LB[2,7,1]: c[7,1] - 11 delta[2,7,1] >= 16
 LB[2,8,0]: c[8,0] - 29 delta[2,8,0] >= 40
 LB[2,8,1]: c[8,1] - 11 delta[2,8,1] >= 35.5
 LB[2,9,0]: c[9,0] - 29 delta[2,9,0] >= 12
 LB[2,9,1]: c[9,1] - 11 delta[2,9,1] >= 39
 LB[3,0,0]: c[0,0] - 26 delta[3,0,0] >= 20
 LB[3,0,1]: c[0,1] - 30 delta[3,0,1] >= 19
 LB[3,1,0]: c[1,0] - 26 delta[3,1,0] >= 8
 LB[3,1,1]: c[1,1] - 30 delta[3,1,1] >= 12
 LB[3,2,0]: c[2,0] - 26 delta[3,2,0] >= 14.5
 LB[3,2,1]: c[2,1] - 30 delta[3,2,1] >= 5.5
 LB[3,4,0]: c[4,0] - 26 delta[3,4,0] >= 42.5
 LB[3,4,1]: c[4,1] - 30 delta[3,4,1] >= 21
 LB[3,5,0]: c[5,0] - 26 delta[3,5,0] >= 23
 LB[3,5,1]: c[5,1] - 30 delta[3,5,1] >= 8.5
 LB[3,6,0]: c[6,0] - 26 delta[3,6,0] >= 26
 LB[3,6,1]: c[6,1] - 30 delta[3,6,1] >= 6.5
 LB[3,7,0]: c[7,0] - 26 delta[3,7,0] >= 35
 LB[3,7,1]: c[7,1] - 30 delta[3,7,1] >= 16
 LB[3,8,0]: c[8,0] - 26 delta[3,8,0] >= 40
 LB[3,8,1]: c[8,1] - 30 delta[3,8,1] >= 35.5
 LB[3,9,0]: c[9,0] - 26 delta[3,9,0] >= 12
 LB[3,9,1]: c[9,1] - 30 delta[3,9,1] >= 39
 LB[4,0,0]: c[0,0] - 68 delta[4,0,0] >= 20
 LB[4,0,1]: c[0,1] - 42 delta[4,0,1] >= 19
 LB[4,1,0]: c[1,0] - 80 delta[4,1,0] >= 8
 LB[4,1,1]: c[1,1] - 42 delta[4,1,1] >= 12
 LB[4,2,0]: c[2,0] - 80 delta[4,2,0] >= 14.5
 LB[4,2,1]: c[2,1] - 42 delta[4,2,1] >= 5.5
 LB[4,3,0]: c[3,0] - 70 delta[4,3,0] >= 18
 LB[4,3,1]: c[3,1] - 42 delta[4,3,1] >= 15
 LB[4,5,0]: c[5,0] - 80 delta[4,5,0] >= 23
 LB[4,5,1]: c[5,1] - 42 delta[4,5,1] >= 8.5
 LB[4,6,0]: c[6,0] - 66 delta[4,6,0] >= 26
 LB[4,6,1]: c[6,1] - 42 delta[4,6,1] >= 6.5
 LB[4,7,0]: c[7,0] - 60 delta[4,7,0] >= 35
 LB[4,7,1]: c[7,1] - 42 delta[4,7,1] >= 16
 LB[4,8,0]: c[8,0] - 80 delta[4,8,0] >= 40
 LB[4,8,1]: c[8,1] - 42 delta[4,8,1] >= 35.5
 LB[4,9,0]: c[9,0] - 80 delta[4,9,0] >= 12
 LB[4,9,1]: c[9,1] - 42 delta[4,9,1] >= 39
 LB[5,0,0]: c[0,0] - 57 delta[5,0,0] >= 20
 LB[5,0,1]: c[0,1] - 17 delta[5,0,1] >= 19
 LB[5,1,0]: c[1,0] - 69 delta[5,1,0] >= 8
 LB[5,1,1]: c[1,1] - 17 delta[5,1,1] >= 12
 LB[5,2,0]: c[2,0] - 69 delta[5,2,0] >= 14.5
 LB[5,2,1]: c[2,1] - 17 delta[5,2,1] >= 5.5
 LB[5,3,0]: c[3,0] - 59 delta[5,3,0] >= 18
 LB[5,3,1]: c[3,1] - 17 delta[5,3,1] >= 15
 LB[5,4,0]: c[4,0] - 46 delta[5,4,0] >= 42.5
 LB[5,4,1]: c[4,1] - 17 delta[5,4,1] >= 21
 LB[5,6,0]: c[6,0] - 55 delta[5,6,0] >= 26
 LB[5,6,1]: c[6,1] - 17 delta[5,6,1] >= 6.5
 LB[5,7,0]: c[7,0] - 49 delta[5,7,0] >= 35
 LB[5,7,1]: c[7,1] - 17 delta[5,7,1] >= 16
 LB[5,8,0]: c[8,0] - 69 delta[5,8,0] >= 40
 LB[5,8,1]: c[8,1] - 17 delta[5,8,1] >= 35.5
 LB[5,9,0]: c[9,0] - 69 delta[5,9,0] >= 12
 LB[5,9,1]: c[9,1] - 17 delta[5,9,1] >= 39
 LB[6,0,0]: c[0,0] - 39 delta[6,0,0] >= 20
 LB[6,0,1]: c[0,1] - 13 delta[6,0,1] >= 19
 LB[6,1,0]: c[1,0] - 51 delta[6,1,0] >= 8
 LB[6,1,1]: c[1,1] - 13 delta[6,1,1] >= 12
 LB[6,2,0]: c[2,0] - 51 delta[6,2,0] >= 14.5
 LB[6,2,1]: c[2,1] - 13 delta[6,2,1] >= 5.5
 LB[6,3,0]: c[3,0] - 41 delta[6,3,0] >= 18
 LB[6,3,1]: c[3,1] - 13 delta[6,3,1] >= 15
 LB[6,4,0]: c[4,0] - 38 delta[6,4,0] >= 42.5
 LB[6,4,1]: c[4,1] - 13 delta[6,4,1] >= 21
 LB[6,5,0]: c[5,0] - 51 delta[6,5,0] >= 23
 LB[6,5,1]: c[5,1] - 13 delta[6,5,1] >= 8.5
 LB[6,7,0]: c[7,0] - 38 delta[6,7,0] >= 35
 LB[6,7,1]: c[7,1] - 13 delta[6,7,1] >= 16
 LB[6,8,0]: c[8,0] - 51 delta[6,8,0] >= 40
 LB[6,8,1]: c[8,1] - 13 delta[6,8,1] >= 35.5
 LB[6,9,0]: c[9,0] - 51 delta[6,9,0] >= 12
 LB[6,9,1]: c[9,1] - 13 delta[6,9,1] >= 39
 LB[7,0,0]: c[0,0] - 62 delta[7,0,0] >= 20
 LB[7,0,1]: c[0,1] - 39 delta[7,0,1] >= 19
 LB[7,1,0]: c[1,0] - 74 delta[7,1,0] >= 8
 LB[7,1,1]: c[1,1] - 48 delta[7,1,1] >= 12
 LB[7,2,0]: c[2,0] - 74 delta[7,2,0] >= 14.5
 LB[7,2,1]: c[2,1] - 48 delta[7,2,1] >= 5.5
 LB[7,3,0]: c[3,0] - 64 delta[7,3,0] >= 18
 LB[7,3,1]: c[3,1] - 48 delta[7,3,1] >= 15
 LB[7,4,0]: c[4,0] - 50 delta[7,4,0] >= 42.5
 LB[7,4,1]: c[4,1] - 48 delta[7,4,1] >= 21
 LB[7,5,0]: c[5,0] - 74 delta[7,5,0] >= 23
 LB[7,5,1]: c[5,1] - 48 delta[7,5,1] >= 8.5
 LB[7,6,0]: c[6,0] - 60 delta[7,6,0] >= 26
 LB[7,6,1]: c[6,1] - 48 delta[7,6,1] >= 6.5
 LB[7,8,0]: c[8,0] - 74 delta[7,8,0] >= 40
 LB[7,8,1]: c[8,1] - 48 delta[7,8,1] >= 35.5
 LB[7,9,0]: c[9,0] - 74 delta[7,9,0] >= 12
 LB[7,9,1]: c[9,1] - 32 delta[7,9,1] >= 39
 LB[8,0,0]: c[0,0] - 109 delta[8,0,0] >= 20
 LB[8,0,1]: c[0,1] - 71 delta[8,0,1] >= 19
 LB[8,1,0]: c[1,0] - 121 delta[8,1,0] >= 8
 LB[8,1,1]: c[1,1] - 71 delta[8,1,1] >= 12
 LB[8,2,0]: c[2,0] - 121 delta[8,2,0] >= 14.5
 LB[8,2,1]: c[2,1] - 71 delta[8,2,1] >= 5.5
 LB[8,3,0]: c[3,0] - 111 delta[8,3,0] >= 18
 LB[8,3,1]: c[3,1] - 71 delta[8,3,1] >= 15
 LB[8,4,0]: c[4,0] - 95 delta[8,4,0] >= 42.5
 LB[8,4,1]: c[4,1] - 71 delta[8,4,1] >= 21
 LB[8,5,0]: c[5,0] - 121 delta[8,5,0] >= 23
 LB[8,5,1]: c[5,1] - 71 delta[8,5,1] >= 8.5
 LB[8,6,0]: c[6,0] - 107 delta[8,6,0] >= 26
 LB[8,6,1]: c[6,1] - 71 delta[8,6,1] >= 6.5
 LB[8,7,0]: c[7,0] - 101 delta[8,7,0] >= 35
 LB[8,7,1]: c[7,1] - 71 delta[8,7,1] >= 16
 LB[8,9,0]: c[9,0] - 121 delta[8,9,0] >= 12
 LB[8,9,1]: c[9,1] - 71 delta[8,9,1] >= 39
 LB[9,0,0]: c[0,0] - 24 delta[9,0,0] >= 20
 LB[9,0,1]: c[0,1] - 55 delta[9,0,1] >= 19
 LB[9,1,0]: c[1,0] - 24 delta[9,1,0] >= 8
 LB[9,1,1]: c[1,1] - 55 delta[9,1,1] >= 12
 LB[9,2,0]: c[2,0] - 24 delta[9,2,0] >= 14.5
 LB[9,2,1]: c[2,1] - 55 delta[9,2,1] >= 5.5
 LB[9,3,0]: c[3,0] - 24 delta[9,3,0] >= 18
 LB[9,3,1]: c[3,1] - 55 delta[9,3,1] >= 15
 LB[9,4,0]: c[4,0] - 24 delta[9,4,0] >= 42.5
 LB[9,4,1]: c[4,1] - 55 delta[9,4,1] >= 21
 LB[9,5,0]: c[5,0] - 24 delta[9,5,0] >= 23
 LB[9,5,1]: c[5,1] - 55 delta[9,5,1] >= 8.5
 LB[9,6,0]: c[6,0] - 24 delta[9,6,0] >= 26
 LB[9,6,1]: c[6,1] - 55 delta[9,6,1] >= 6.5
 LB[9,7,0]: c[7,0] - 24 delta[9,7,0] >= 35
 LB[9,7,1]: c[7,1] - 55 delta[9,7,1] >= 16
 LB[9,8,0]: c[8,0] - 24 delta[9,8,0] >= 40
 LB[9,8,1]: c[8,1] - 55 delta[9,8,1] >= 35.5
 UB[0,1,0]: c[0,0] + 31 delta[0,1,0] <= 137
 UB[0,1,1]: c[0,1] + 24 delta[0,1,1] <= 135
 UB[0,2,0]: c[0,0] + 29 delta[0,2,0] <= 137
 UB[0,2,1]: c[0,1] + 11 delta[0,2,1] <= 135
 UB[0,3,0]: c[0,0] + 26 delta[0,3,0] <= 137
 UB[0,3,1]: c[0,1] + 30 delta[0,3,1] <= 135
 UB[0,4,0]: c[0,0] + 80 delta[0,4,0] <= 137
 UB[0,4,1]: c[0,1] + 42 delta[0,4,1] <= 135
 UB[0,5,0]: c[0,0] + 69 delta[0,5,0] <= 137
 UB[0,5,1]: c[0,1] + 17 delta[0,5,1] <= 135
 UB[0,6,0]: c[0,0] + 51 delta[0,6,0] <= 137
 UB[0,6,1]: c[0,1] + 13 delta[0,6,1] <= 135
 UB[0,7,0]: c[0,0] + 74 delta[0,7,0] <= 137
 UB[0,7,1]: c[0,1] + 48 delta[0,7,1] <= 135
 UB[0,8,0]: c[0,0] + 121 delta[0,8,0] <= 137
 UB[0,8,1]: c[0,1] + 71 delta[0,8,1] <= 135
 UB[0,9,0]: c[0,0] + 24 delta[0,9,0] <= 137
 UB[0,9,1]: c[0,1] + 55 delta[0,9,1] <= 135
 UB[1,0,0]: c[1,0] + 16 delta[1,0,0] <= 122
 UB[1,0,1]: c[1,1] + 29 delta[1,0,1] <= 133
 UB[1,2,0]: c[1,0] + 29 delta[1,2,0] <= 122
 UB[1,2,1]: c[1,1] + 11 delta[1,2,1] <= 133
 UB[1,3,0]: c[1,0] + 16 delta[1,3,0] <= 122
 UB[1,3,1]: c[1,1] + 30 delta[1,3,1] <= 133
 UB[1,4,0]: c[1,0] + 65 delta[1,4,0] <= 122
 UB[1,4,1]: c[1,1] + 42 delta[1,4,1] <= 133
 UB[1,5,0]: c[1,0] + 69 delta[1,5,0] <= 122
 UB[1,5,1]: c[1,1] + 17 delta[1,5,1] <= 133
 UB[1,6,0]: c[1,0] + 37 delta[1,6,0] <= 122
 UB[1,6,1]: c[1,1] + 13 delta[1,6,1] <= 133
 UB[1,7,0]: c[1,0] + 59 delta[1,7,0] <= 122
 UB[1,7,1]: c[1,1] + 48 delta[1,7,1] <= 133
 UB[1,8,0]: c[1,0] + 121 delta[1,8,0] <= 122
 UB[1,8,1]: c[1,1] + 71 delta[1,8,1] <= 133
 UB[1,9,0]: c[1,0] + 24 delta[1,9,0] <= 122
 UB[1,9,1]: c[1,1] + 55 delta[1,9,1] <= 133
 UB[2,0,0]: c[2,0] + 28 delta[2,0,0] <= 130.5
 UB[2,0,1]: c[2,1] + 29 delta[2,0,1] <= 139.5
 UB[2,1,0]: c[2,0] + 31 delta[2,1,0] <= 130.5
 UB[2,1,1]: c[2,1] + 24 delta[2,1,1] <= 139.5
 UB[2,3,0]: c[2,0] + 26 delta[2,3,0] <= 130.5
 UB[2,3,1]: c[2,1] + 30 delta[2,3,1] <= 139.5
 UB[2,4,0]: c[2,0] + 80 delta[2,4,0] <= 130.5
 UB[2,4,1]: c[2,1] + 42 delta[2,4,1] <= 139.5
 UB[2,5,0]: c[2,0] + 69 delta[2,5,0] <= 130.5
 UB[2,5,1]: c[2,1] + 17 delta[2,5,1] <= 139.5
 UB[2,6,0]: c[2,0] + 51 delta[2,6,0] <= 130.5
 UB[2,6,1]: c[2,1] + 13 delta[2,6,1] <= 139.5
 UB[2,7,0]: c[2,0] + 74 delta[2,7,0] <= 130.5
 UB[2,7,1]: c[2,1] + 48 delta[2,7,1] <= 139.5
 UB[2,8,0]: c[2,0] + 121 delta[2,8,0] <= 130.5
 UB[2,8,1]: c[2,1] + 71 delta[2,8,1] <= 139.5
 UB[2,9,0]: c[2,0] + 24 delta[2,9,0] <= 130.5
 UB[2,9,1]: c[2,1] + 55 delta[2,9,1] <= 139.5
 UB[3,0,0]: c[3,0] + 28 delta[3,0,0] <= 137
 UB[3,0,1]: c[3,1] + 29 delta[3,0,1] <= 130
 UB[3,1,0]: c[3,0] + 31 delta[3,1,0] <= 137
 UB[3,1,1]: c[3,1] + 24 delta[3,1,1] <= 130
 UB[3,2,0]: c[3,0] + 29 delta[3,2,0] <= 137
 UB[3,2,1]: c[3,1] + 11 delta[3,2,1] <= 130
 UB[3,4,0]: c[3,0] + 80 delta[3,4,0] <= 137
 UB[3,4,1]: c[3,1] + 42 delta[3,4,1] <= 130
 UB[3,5,0]: c[3,0] + 69 delta[3,5,0] <= 137
 UB[3,5,1]: c[3,1] + 17 delta[3,5,1] <= 130
 UB[3,6,0]: c[3,0] + 51 delta[3,6,0] <= 137
 UB[3,6,1]: c[3,1] + 13 delta[3,6,1] <= 130
 UB[3,7,0]: c[3,0] + 74 delta[3,7,0] <= 137
 UB[3,7,1]: c[3,1] + 48 delta[3,7,1] <= 130
 UB[3,8,0]: c[3,0] + 121 delta[3,8,0] <= 137
 UB[3,8,1]: c[3,1] + 71 delta[3,8,1] <= 130
 UB[3,9,0]: c[3,0] + 24 delta[3,9,0] <= 137
 UB[3,9,1]: c[3,1] + 55 delta[3,9,1] <= 130
 UB[4,0,0]: c[4,0] + 16 delta[4,0,0] <= 107.5
 UB[4,0,1]: c[4,1] + 29 delta[4,0,1] <= 124
 UB[4,1,0]: c[4,0] + 31 delta[4,1,0] <= 107.5
 UB[4,1,1]: c[4,1] + 24 delta[4,1,1] <= 124
 UB[4,2,0]: c[4,0] + 29 delta[4,2,0] <= 107.5
 UB[4,2,1]: c[4,1] + 11 delta[4,2,1] <= 124
 UB[4,3,0]: c[4,0] + 16 delta[4,3,0] <= 107.5
 UB[4,3,1]: c[4,1] + 30 delta[4,3,1] <= 124
 UB[4,5,0]: c[4,0] + 69 delta[4,5,0] <= 107.5
 UB[4,5,1]: c[4,1] + 17 delta[4,5,1] <= 124
 UB[4,6,0]: c[4,0] + 37 delta[4,6,0] <= 107.5
 UB[4,6,1]: c[4,1] + 13 delta[4,6,1] <= 124
 UB[4,7,0]: c[4,0] + 54 delta[4,7,0] <= 107.5
 UB[4,7,1]: c[4,1] + 48 delta[4,7,1] <= 124
 UB[4,8,0]: c[4,0] + 121 delta[4,8,0] <= 107.5
 UB[4,8,1]: c[4,1] + 71 delta[4,8,1] <= 124
 UB[4,9,0]: c[4,0] + 24 delta[4,9,0] <= 107.5
 UB[4,9,1]: c[4,1] + 55 delta[4,9,1] <= 124
 UB[5,0,0]: c[5,0] + 16 delta[5,0,0] <= 99
 UB[5,0,1]: c[5,1] + 29 delta[5,0,1] <= 136.5
 UB[5,1,0]: c[5,0] + 31 delta[5,1,0] <= 99
 UB[5,1,1]: c[5,1] + 24 delta[5,1,1] <= 136.5
 UB[5,2,0]: c[5,0] + 29 delta[5,2,0] <= 99
 UB[5,2,1]: c[5,1] + 11 delta[5,2,1] <= 136.5
 UB[5,3,0]: c[5,0] + 16 delta[5,3,0] <= 99
 UB[5,3,1]: c[5,1] + 30 delta[5,3,1] <= 136.5
 UB[5,4,0]: c[5,0] + 57 delta[5,4,0] <= 99
 UB[5,4,1]: c[5,1] + 42 delta[5,4,1] <= 136.5
 UB[5,6,0]: c[5,0] + 37 delta[5,6,0] <= 99
 UB[5,6,1]: c[5,1] + 13 delta[5,6,1] <= 136.5
 UB[5,7,0]: c[5,0] + 54 delta[5,7,0] <= 99
 UB[5,7,1]: c[5,1] + 48 delta[5,7,1] <= 136.5
 UB[5,8,0]: c[5,0] + 121 delta[5,8,0] <= 99
 UB[5,8,1]: c[5,1] + 71 delta[5,8,1] <= 136.5
 UB[5,9,0]: c[5,0] + 24 delta[5,9,0] <= 99
 UB[5,9,1]: c[5,1] + 55 delta[5,9,1] <= 136.5
 UB[6,0,0]: c[6,0] + 16 delta[6,0,0] <= 120
 UB[6,0,1]: c[6,1] + 29 delta[6,0,1] <= 138.5
 UB[6,1,0]: c[6,0] + 31 delta[6,1,0] <= 120
 UB[6,1,1]: c[6,1] + 24 delta[6,1,1] <= 138.5
 UB[6,2,0]: c[6,0] + 29 delta[6,2,0] <= 120
 UB[6,2,1]: c[6,1] + 11 delta[6,2,1] <= 138.5
 UB[6,3,0]: c[6,0] + 16 delta[6,3,0] <= 120
 UB[6,3,1]: c[6,1] + 30 delta[6,3,1] <= 138.5
 UB[6,4,0]: c[6,0] + 67 delta[6,4,0] <= 120
 UB[6,4,1]: c[6,1] + 42 delta[6,4,1] <= 138.5
 UB[6,5,0]: c[6,0] + 69 delta[6,5,0] <= 120
 UB[6,5,1]: c[6,1] + 17 delta[6,5,1] <= 138.5
 UB[6,7,0]: c[6,0] + 61 delta[6,7,0] <= 120
 UB[6,7,1]: c[6,1] + 48 delta[6,7,1] <= 138.5
 UB[6,8,0]: c[6,0] + 121 delta[6,8,0] <= 120
 UB[6,8,1]: c[6,1] + 71 delta[6,8,1] <= 138.5
 UB[6,9,0]: c[6,0] + 24 delta[6,9,0] <= 120
 UB[6,9,1]: c[6,1] + 55 delta[6,9,1] <= 138.5
 UB[7,0,0]: c[7,0] + 16 delta[7,0,0] <= 106
 UB[7,0,1]: c[7,1] + 20 delta[7,0,1] <= 113
 UB[7,1,0]: c[7,0] + 31 delta[7,1,0] <= 106
 UB[7,1,1]: c[7,1] + 24 delta[7,1,1] <= 113
 UB[7,2,0]: c[7,0] + 29 delta[7,2,0] <= 106
 UB[7,2,1]: c[7,1] + 11 delta[7,2,1] <= 113
 UB[7,3,0]: c[7,0] + 16 delta[7,3,0] <= 106
 UB[7,3,1]: c[7,1] + 30 delta[7,3,1] <= 113
 UB[7,4,0]: c[7,0] + 56 delta[7,4,0] <= 106
 UB[7,4,1]: c[7,1] + 42 delta[7,4,1] <= 113
 UB[7,5,0]: c[7,0] + 69 delta[7,5,0] <= 106
 UB[7,5,1]: c[7,1] + 17 delta[7,5,1] <= 113
 UB[7,6,0]: c[7,0] + 37 delta[7,6,0] <= 106
 UB[7,6,1]: c[7,1] + 13 delta[7,6,1] <= 113
 UB[7,8,0]: c[7,0] + 121 delta[7,8,0] <= 106
 UB[7,8,1]: c[7,1] + 71 delta[7,8,1] <= 113
 UB[7,9,0]: c[7,0] + 24 delta[7,9,0] <= 106
 UB[7,9,1]: c[7,1] + 39 delta[7,9,1] <= 113
 UB[8,0,0]: c[8,0] + 16 delta[8,0,0] <= 64
 UB[8,0,1]: c[8,1] + 29 delta[8,0,1] <= 109.5
 UB[8,1,0]: c[8,0] + 31 delta[8,1,0] <= 64
 UB[8,1,1]: c[8,1] + 24 delta[8,1,1] <= 109.5
 UB[8,2,0]: c[8,0] + 29 delta[8,2,0] <= 64
 UB[8,2,1]: c[8,1] + 11 delta[8,2,1] <= 109.5
 UB[8,3,0]: c[8,0] + 16 delta[8,3,0] <= 64
 UB[8,3,1]: c[8,1] + 30 delta[8,3,1] <= 109.5
 UB[8,4,0]: c[8,0] + 54 delta[8,4,0] <= 64
 UB[8,4,1]: c[8,1] + 42 delta[8,4,1] <= 109.5
 UB[8,5,0]: c[8,0] + 69 delta[8,5,0] <= 64
 UB[8,5,1]: c[8,1] + 17 delta[8,5,1] <= 109.5
 UB[8,6,0]: c[8,0] + 37 delta[8,6,0] <= 64
 UB[8,6,1]: c[8,1] + 13 delta[8,6,1] <= 109.5
 UB[8,7,0]: c[8,0] + 54 delta[8,7,0] <= 64
 UB[8,7,1]: c[8,1] + 48 delta[8,7,1] <= 109.5
 UB[8,9,0]: c[8,0] + 24 delta[8,9,0] <= 64
 UB[8,9,1]: c[8,1] + 55 delta[8,9,1] <= 109.5
 UB[9,0,0]: c[9,0] + 28 delta[9,0,0] <= 133
 UB[9,0,1]: c[9,1] + 29 delta[9,0,1] <= 129
 UB[9,1,0]: c[9,0] + 31 delta[9,1,0] <= 133
 UB[9,1,1]: c[9,1] + 24 delta[9,1,1] <= 129
 UB[9,2,0]: c[9,0] + 29 delta[9,2,0] <= 133
 UB[9,2,1]: c[9,1] + 11 delta[9,2,1] <= 129
 UB[9,3,0]: c[9,0] + 26 delta[9,3,0] <= 133
 UB[9,3,1]: c[9,1] + 30 delta[9,3,1] <= 129
 UB[9,4,0]: c[9,0] + 80 delta[9,4,0] <= 133
 UB[9,4,1]: c[9,1] + 42 delta[9,4,1] <= 129
 UB[9,5,0]: c[9,0] + 69 delta[9,5,0] <= 133
 UB[9,5,1]: c[9,1] + 17 delta[9,5,1] <= 129
 UB[9,6,0]: c[9,0] + 51 delta[9,6,0] <= 133
 UB[9,6,1]: c[9,1] + 13 delta[9,6,1] <= 129
 UB[9,7,0]: c[9,0] + 74 delta[9,7,0] <= 133
 UB[9,7,1]: c[9,1] + 48 delta[9,7,1] <= 129
 UB[9,8,0]: c[9,0] + 121 delta[9,8,0] <= 133
 UB[9,8,1]: c[9,1] + 71 delta[9,8,1] <= 129
 PM[0,1,0]: c[0,0] - c[1,0] + 47 delta[0,1,0] - 98 delta[1,0,0] <= 31
 PM[0,1,1]: c[0,1] - c[1,1] + 53 delta[0,1,1] - 92 delta[1,0,1] <= 31
 PM[0,2,0]: c[0,0] - c[2,0] + 57 delta[0,2,0] - 88 delta[2,0,0] <= 34.5
 PM[0,2,1]: c[0,1] - c[2,1] + 40 delta[0,2,1] - 105 delta[2,0,1] <= 24.5
 PM[0,3,0]: c[0,0] - c[3,0] + 54 delta[0,3,0] - 91 delta[3,0,0] <= 28
 PM[0,3,1]: c[0,1] - c[3,1] + 59 delta[0,3,1] - 86 delta[3,0,1] <= 34
 PM[0,4,0]: c[0,0] - c[4,0] + 96 delta[0,4,0] - 49 delta[4,0,0] <= 45.5
 PM[0,4,1]: c[0,1] - c[4,1] + 71 delta[0,4,1] - 74 delta[4,0,1] <= 40
 PM[0,5,0]: c[0,0] - c[5,0] + 85 delta[0,5,0] - 60 delta[5,0,0] <= 54
 PM[0,5,1]: c[0,1] - c[5,1] + 46 delta[0,5,1] - 99 delta[5,0,1] <= 27.5
 PM[0,6,0]: c[0,0] - c[6,0] + 67 delta[0,6,0] - 78 delta[6,0,0] <= 33
 PM[0,6,1]: c[0,1] - c[6,1] + 42 delta[0,6,1] - 103 delta[6,0,1] <= 25.5
 PM[0,7,0]: c[0,0] - c[7,0] + 90 delta[0,7,0] - 55 delta[7,0,0] <= 47
 PM[0,7,1]: c[0,1] - c[7,1] + 68 delta[0,7,1] - 77 delta[7,0,1] <= 42
 PM[0,8,0]: c[0,0] - c[8,0] + 137 delta[0,8,0] - 8 delta[8,0,0] <= 89
 PM[0,8,1]: c[0,1] - c[8,1] + 100 delta[0,8,1] - 45 delta[8,0,1] <= 54.5
 PM[0,9,0]: c[0,0] - c[9,0] + 52 delta[0,9,0] - 93 delta[9,0,0] <= 32
 PM[0,9,1]: c[0,1] - c[9,1] + 84 delta[0,9,1] - 61 delta[9,0,1] <= 35
 PM[1,0,0]: - c[0,0] + c[1,0] - 86 delta[0,1,0] + 47 delta[1,0,0] <= 16
 PM[1,0,1]: - c[0,1] + c[1,1] - 92 delta[0,1,1] + 53 delta[1,0,1] <= 22
 PM[1,2,0]: c[1,0] - c[2,0] + 60 delta[1,2,0] - 85 delta[2,1,0] <= 22.5
 PM[1,2,1]: c[1,1] - c[2,1] + 35 delta[1,2,1] - 110 delta[2,1,1] <= 17.5
 PM[1,3,0]: c[1,0] - c[3,0] + 47 delta[1,3,0] - 88 delta[3,1,0] <= 16
 PM[1,3,1]: c[1,1] - c[3,1] + 54 delta[1,3,1] - 91 delta[3,1,1] <= 27
 PM[1,4,0]: c[1,0] - c[4,0] + 96 delta[1,4,0] - 34 delta[4,1,0] <= 45.5
 PM[1,4,1]: c[1,1] - c[4,1] + 66 delta[1,4,1] - 79 delta[4,1,1] <= 33
 PM[1,5,0]: c[1,0] - c[5,0] + 100 delta[1,5,0] - 45 delta[5,1,0] <= 54
 PM[1,5,1]: c[1,1] - c[5,1] + 41 delta[1,5,1] - 104 delta[5,1,1] <= 20.5
 PM[1,6,0]: c[1,0] - c[6,0] + 68 delta[1,6,0] - 63 delta[6,1,0] <= 33
 PM[1,6,1]: c[1,1] - c[6,1] + 37 delta[1,6,1] - 108 delta[6,1,1] <= 18.5
 PM[1,7,0]: c[1,0] - c[7,0] + 90 delta[1,7,0] - 40 delta[7,1,0] <= 47
 PM[1,7,1]: c[1,1] - c[7,1] + 72 delta[1,7,1] - 73 delta[7,1,1] <= 44
 PM[1,8,0]: c[1,0] - c[8,0] + 152 delta[1,8,0] + 7 delta[8,1,0] <= 89
 PM[1,8,1]: c[1,1] - c[8,1] + 95 delta[1,8,1] - 50 delta[8,1,1] <= 47.5
 PM[1,9,0]: c[1,0] - c[9,0] + 55 delta[1,9,0] - 90 delta[9,1,0] <= 20
 PM[1,9,1]: c[1,1] - c[9,1] + 79 delta[1,9,1] - 66 delta[9,1,1] <= 28
 PM[2,0,0]: - c[0,0] + c[2,0] - 88 delta[0,2,0] + 57 delta[2,0,0] <= 22.5
 PM[2,0,1]: - c[0,1] + c[2,1] - 105 delta[0,2,1] + 40 delta[2,0,1] <= 15.5
 PM[2,1,0]: - c[1,0] + c[2,0] - 85 delta[1,2,0] + 60 delta[2,1,0] <= 37.5
 PM[2,1,1]: - c[1,1] + c[2,1] - 110 delta[1,2,1] + 35 delta[2,1,1] <= 17.5
 PM[2,3,0]: c[2,0] - c[3,0] + 55 delta[2,3,0] - 90 delta[3,2,0] <= 22.5
 PM[2,3,1]: c[2,1] - c[3,1] + 41 delta[2,3,1] - 104 delta[3,2,1] <= 20.5
 PM[2,4,0]: c[2,0] - c[4,0] + 109 delta[2,4,0] - 36 delta[4,2,0] <= 52
 PM[2,4,1]: c[2,1] - c[4,1] + 53 delta[2,4,1] - 92 delta[4,2,1] <= 26.5
 PM[2,5,0]: c[2,0] - c[5,0] + 98 delta[2,5,0] - 47 delta[5,2,0] <= 60.5
 PM[2,5,1]: c[2,1] - c[5,1] + 28 delta[2,5,1] - 117 delta[5,2,1] <= 14
 PM[2,6,0]: c[2,0] - c[6,0] + 80 delta[2,6,0] - 65 delta[6,2,0] <= 39.5
 PM[2,6,1]: c[2,1] - c[6,1] + 24 delta[2,6,1] - 121 delta[6,2,1] <= 12
 PM[2,7,0]: c[2,0] - c[7,0] + 103 delta[2,7,0] - 42 delta[7,2,0] <= 53.5
 PM[2,7,1]: c[2,1] - c[7,1] + 59 delta[2,7,1] - 86 delta[7,2,1] <= 37.5
 PM[2,8,0]: c[2,0] - c[8,0] + 150 delta[2,8,0] + 5 delta[8,2,0] <= 95.5
 PM[2,8,1]: c[2,1] - c[8,1] + 82 delta[2,8,1] - 63 delta[8,2,1] <= 41
 PM[2,9,0]: c[2,0] - c[9,0] + 53 delta[2,9,0] - 92 delta[9,2,0] <= 26.5
 PM[2,9,1]: c[2,1] - c[9,1] + 66 delta[2,9,1] - 79 delta[9,2,1] <= 21.5
 PM[3,0,0]: - c[0,0] + c[3,0] - 91 delta[0,3,0] + 54 delta[3,0,0] <= 26
 PM[3,0,1]: - c[0,1] + c[3,1] - 86 delta[0,3,1] + 59 delta[3,0,1] <= 25
 PM[3,1,0]: - c[1,0] + c[3,0] - 98 delta[1,3,0] + 47 delta[3,1,0] <= 31
 PM[3,1,1]: - c[1,1] + c[3,1] - 91 delta[1,3,1] + 54 delta[3,1,1] <= 27
 PM[3,2,0]: - c[2,0] + c[3,0] - 90 delta[2,3,0] + 55 delta[3,2,0] <= 32.5
 PM[3,2,1]: - c[2,1] + c[3,1] - 104 delta[2,3,1] + 41 delta[3,2,1] <= 20.5
 PM[3,4,0]: c[3,0] - c[4,0] + 96 delta[3,4,0] - 49 delta[4,3,0] <= 45.5
 PM[3,4,1]: c[3,1] - c[4,1] + 72 delta[3,4,1] - 73 delta[4,3,1] <= 36
 PM[3,5,0]: c[3,0] - c[5,0] + 85 delta[3,5,0] - 60 delta[5,3,0] <= 54
 PM[3,5,1]: c[3,1] - c[5,1] + 47 delta[3,5,1] - 98 delta[5,3,1] <= 23.5
 PM[3,6,0]: c[3,0] - c[6,0] + 67 delta[3,6,0] - 78 delta[6,3,0] <= 33
 PM[3,6,1]: c[3,1] - c[6,1] + 43 delta[3,6,1] - 102 delta[6,3,1] <= 21.5
 PM[3,7,0]: c[3,0] - c[7,0] + 90 delta[3,7,0] - 55 delta[7,3,0] <= 47
 PM[3,7,1]: c[3,1] - c[7,1] + 78 delta[3,7,1] - 67 delta[7,3,1] <= 47
 PM[3,8,0]: c[3,0] - c[8,0] + 137 delta[3,8,0] - 8 delta[8,3,0] <= 89
 PM[3,8,1]: c[3,1] - c[8,1] + 101 delta[3,8,1] - 44 delta[8,3,1] <= 50.5
 PM[3,9,0]: c[3,0] - c[9,0] + 50 delta[3,9,0] - 95 delta[9,3,0] <= 30
 PM[3,9,1]: c[3,1] - c[9,1] + 85 delta[3,9,1] - 60 delta[9,3,1] <= 31
 PM[4,0,0]: - c[0,0] + c[4,0] - 37 delta[0,4,0] + 96 delta[4,0,0] <= 50.5
 PM[4,0,1]: - c[0,1] + c[4,1] - 74 delta[0,4,1] + 71 delta[4,0,1] <= 31
 PM[4,1,0]: - c[1,0] + c[4,0] - 49 delta[1,4,0] + 96 delta[4,1,0] <= 50.5
 PM[4,1,1]: - c[1,1] + c[4,1] - 79 delta[1,4,1] + 66 delta[4,1,1] <= 33
 PM[4,2,0]: - c[2,0] + c[4,0] - 36 delta[2,4,0] + 109 delta[4,2,0] <= 57
 PM[4,2,1]: - c[2,1] + c[4,1] - 92 delta[2,4,1] + 53 delta[4,2,1] <= 26.5
 PM[4,3,0]: - c[3,0] + c[4,0] - 39 delta[3,4,0] + 96 delta[4,3,0] <= 50.5
 PM[4,3,1]: - c[3,1] + c[4,1] - 73 delta[3,4,1] + 72 delta[4,3,1] <= 36
 PM[4,5,0]: c[4,0] - c[5,0] + 126 delta[4,5,0] - 19 delta[5,4,0] <= 65.5
 PM[4,5,1]: c[4,1] - c[5,1] + 59 delta[4,5,1] - 86 delta[5,4,1] <= 29.5
 PM[4,6,0]: c[4,0] - c[6,0] + 104 delta[4,6,0] - 27 delta[6,4,0] <= 54.5
 PM[4,6,1]: c[4,1] - c[6,1] + 55 delta[4,6,1] - 90 delta[6,4,1] <= 27.5
 PM[4,7,0]: c[4,0] - c[7,0] + 110 delta[4,7,0] - 15 delta[7,4,0] <= 57.5
 PM[4,7,1]: c[4,1] - c[7,1] + 90 delta[4,7,1] - 55 delta[7,4,1] <= 53
 PM[4,8,0]: c[4,0] - c[8,0] + 175 delta[4,8,0] + 30 delta[8,4,0] <= 97.5
 PM[4,8,1]: c[4,1] - c[8,1] + 113 delta[4,8,1] - 32 delta[8,4,1] <= 56.5
 PM[4,9,0]: c[4,0] - c[9,0] + 104 delta[4,9,0] - 41 delta[9,4,0] <= 54.5
 PM[4,9,1]: c[4,1] - c[9,1] + 97 delta[4,9,1] - 48 delta[9,4,1] <= 37
 PM[5,0,0]: - c[0,0] + c[5,0] - 48 delta[0,5,0] + 85 delta[5,0,0] <= 31
 PM[5,0,1]: - c[0,1] + c[5,1] - 99 delta[0,5,1] + 46 delta[5,0,1] <= 18.5
 PM[5,1,0]: - c[1,0] + c[5,0] - 45 delta[1,5,0] + 100 delta[5,1,0] <= 46
 PM[5,1,1]: - c[1,1] + c[5,1] - 104 delta[1,5,1] + 41 delta[5,1,1] <= 20.5
 PM[5,2,0]: - c[2,0] + c[5,0] - 47 delta[2,5,0] + 98 delta[5,2,0] <= 37.5
 PM[5,2,1]: - c[2,1] + c[5,1] - 117 delta[2,5,1] + 28 delta[5,2,1] <= 14
 PM[5,3,0]: - c[3,0] + c[5,0] - 50 delta[3,5,0] + 85 delta[5,3,0] <= 31
 PM[5,3,1]: - c[3,1] + c[5,1] - 98 delta[3,5,1] + 47 delta[5,3,1] <= 23.5
 PM[5,4,0]: - c[4,0] + c[5,0] + 4 delta[4,5,0] + 126 delta[5,4,0] <= 60.5
 PM[5,4,1]: - c[4,1] + c[5,1] - 86 delta[4,5,1] + 59 delta[5,4,1] <= 29.5
 PM[5,6,0]: c[5,0] - c[6,0] + 106 delta[5,6,0] - 25 delta[6,5,0] <= 48
 PM[5,6,1]: c[5,1] - c[6,1] + 30 delta[5,6,1] - 115 delta[6,5,1] <= 15
 PM[5,7,0]: c[5,0] - c[7,0] + 123 delta[5,7,0] - 2 delta[7,5,0] <= 62
 PM[5,7,1]: c[5,1] - c[7,1] + 65 delta[5,7,1] - 80 delta[7,5,1] <= 40.5
 PM[5,8,0]: c[5,0] - c[8,0] + 190 delta[5,8,0] + 45 delta[8,5,0] <= 104
 PM[5,8,1]: c[5,1] - c[8,1] + 88 delta[5,8,1] - 57 delta[8,5,1] <= 44
 PM[5,9,0]: c[5,0] - c[9,0] + 93 delta[5,9,0] - 52 delta[9,5,0] <= 35
 PM[5,9,1]: c[5,1] - c[9,1] + 72 delta[5,9,1] - 73 delta[9,5,1] <= 24.5
 PM[6,0,0]: - c[0,0] + c[6,0] - 66 delta[0,6,0] + 67 delta[6,0,0] <= 34
 PM[6,0,1]: - c[0,1] + c[6,1] - 103 delta[0,6,1] + 42 delta[6,0,1] <= 16.5
 PM[6,1,0]: - c[1,0] + c[6,0] - 77 delta[1,6,0] + 68 delta[6,1,0] <= 35
 PM[6,1,1]: - c[1,1] + c[6,1] - 108 delta[1,6,1] + 37 delta[6,1,1] <= 18.5
 PM[6,2,0]: - c[2,0] + c[6,0] - 65 delta[2,6,0] + 80 delta[6,2,0] <= 40.5
 PM[6,2,1]: - c[2,1] + c[6,1] - 121 delta[2,6,1] + 24 delta[6,2,1] <= 12
 PM[6,3,0]: - c[3,0] + c[6,0] - 68 delta[3,6,0] + 67 delta[6,3,0] <= 34
 PM[6,3,1]: - c[3,1] + c[6,1] - 102 delta[3,6,1] + 43 delta[6,3,1] <= 21.5
 PM[6,4,0]: - c[4,0] + c[6,0] - 28 delta[4,6,0] + 104 delta[6,4,0] <= 49.5
 PM[6,4,1]: - c[4,1] + c[6,1] - 90 delta[4,6,1] + 55 delta[6,4,1] <= 27.5
 PM[6,5,0]: - c[5,0] + c[6,0] - 39 delta[5,6,0] + 106 delta[6,5,0] <= 58
 PM[6,5,1]: - c[5,1] + c[6,1] - 115 delta[5,6,1] + 30 delta[6,5,1] <= 15
 PM[6,7,0]: c[6,0] - c[7,0] + 98 delta[6,7,0] - 34 delta[7,6,0] <= 51
 PM[6,7,1]: c[6,1] - c[7,1] + 61 delta[6,7,1] - 84 delta[7,6,1] <= 38.5
 PM[6,8,0]: c[6,0] - c[8,0] + 158 delta[6,8,0] + 13 delta[8,6,0] <= 93
 PM[6,8,1]: c[6,1] - c[8,1] + 84 delta[6,8,1] - 61 delta[8,6,1] <= 42
 PM[6,9,0]: c[6,0] - c[9,0] + 75 delta[6,9,0] - 70 delta[9,6,0] <= 38
 PM[6,9,1]: c[6,1] - c[9,1] + 68 delta[6,9,1] - 77 delta[9,6,1] <= 22.5
 PM[7,0,0]: - c[0,0] + c[7,0] - 43 delta[0,7,0] + 90 delta[7,0,0] <= 43
 PM[7,0,1]: - c[0,1] + c[7,1] - 68 delta[0,7,1] + 68 delta[7,0,1] <= 26
 PM[7,1,0]: - c[1,0] + c[7,0] - 55 delta[1,7,0] + 90 delta[7,1,0] <= 43
 PM[7,1,1]: - c[1,1] + c[7,1] - 73 delta[1,7,1] + 72 delta[7,1,1] <= 28
 PM[7,2,0]: - c[2,0] + c[7,0] - 42 delta[2,7,0] + 103 delta[7,2,0] <= 49.5
 PM[7,2,1]: - c[2,1] + c[7,1] - 86 delta[2,7,1] + 59 delta[7,2,1] <= 21.5
 PM[7,3,0]: - c[3,0] + c[7,0] - 45 delta[3,7,0] + 90 delta[7,3,0] <= 43
 PM[7,3,1]: - c[3,1] + c[7,1] - 67 delta[3,7,1] + 78 delta[7,3,1] <= 31
 PM[7,4,0]: - c[4,0] + c[7,0] - 11 delta[4,7,0] + 110 delta[7,4,0] <= 52.5
 PM[7,4,1]: - c[4,1] + c[7,1] - 55 delta[4,7,1] + 90 delta[7,4,1] <= 37
 PM[7,5,0]: - c[5,0] + c[7,0] - 22 delta[5,7,0] + 123 delta[7,5,0] <= 61
 PM[7,5,1]: - c[5,1] + c[7,1] - 80 delta[5,7,1] + 65 delta[7,5,1] <= 24.5
 PM[7,6,0]: - c[6,0] + c[7,0] - 33 delta[6,7,0] + 98 delta[7,6,0] <= 47
 PM[7,6,1]: - c[6,1] + c[7,1] - 84 delta[6,7,1] + 61 delta[7,6,1] <= 22.5
 PM[7,8,0]: c[7,0] - c[8,0] + 175 delta[7,8,0] + 30 delta[8,7,0] <= 96
 PM[7,8,1]: c[7,1] - c[8,1] + 119 delta[7,8,1] - 26 delta[8,7,1] <= 51.5
 PM[7,9,0]: c[7,0] - c[9,0] + 98 delta[7,9,0] - 47 delta[9,7,0] <= 47
 PM[7,9,1]: c[7,1] - c[9,1] + 87 delta[7,9,1] - 42 delta[9,7,1] <= 32
 PM[8,0,0]: - c[0,0] + c[8,0] + 4 delta[0,8,0] + 137 delta[8,0,0] <= 48
 PM[8,0,1]: - c[0,1] + c[8,1] - 45 delta[0,8,1] + 100 delta[8,0,1] <= 45.5
 PM[8,1,0]: - c[1,0] + c[8,0] + 7 delta[1,8,0] + 152 delta[8,1,0] <= 63
 PM[8,1,1]: - c[1,1] + c[8,1] - 50 delta[1,8,1] + 95 delta[8,1,1] <= 47.5
 PM[8,2,0]: - c[2,0] + c[8,0] + 5 delta[2,8,0] + 150 delta[8,2,0] <= 54.5
 PM[8,2,1]: - c[2,1] + c[8,1] - 63 delta[2,8,1] + 82 delta[8,2,1] <= 41
 PM[8,3,0]: - c[3,0] + c[8,0] + 2 delta[3,8,0] + 137 delta[8,3,0] <= 48
 PM[8,3,1]: - c[3,1] + c[8,1] - 44 delta[3,8,1] + 101 delta[8,3,1] <= 50.5
 PM[8,4,0]: - c[4,0] + c[8,0] + 56 delta[4,8,0] + 175 delta[8,4,0] <= 77.5
 PM[8,4,1]: - c[4,1] + c[8,1] - 32 delta[4,8,1] + 113 delta[8,4,1] <= 56.5
 PM[8,5,0]: - c[5,0] + c[8,0] + 45 delta[5,8,0] + 190 delta[8,5,0] <= 86
 PM[8,5,1]: - c[5,1] + c[8,1] - 57 delta[5,8,1] + 88 delta[8,5,1] <= 44
 PM[8,6,0]: - c[6,0] + c[8,0] + 27 delta[6,8,0] + 158 delta[8,6,0] <= 65
 PM[8,6,1]: - c[6,1] + c[8,1] - 61 delta[6,8,1] + 84 delta[8,6,1] <= 42
 PM[8,7,0]: - c[7,0] + c[8,0] + 50 delta[7,8,0] + 175 delta[8,7,0] <= 79
 PM[8,7,1]: - c[7,1] + c[8,1] - 26 delta[7,8,1] + 119 delta[8,7,1] <= 67.5
 PM[8,9,0]: c[8,0] - c[9,0] + 145 delta[8,9,0] <= 52
 PM[8,9,1]: c[8,1] - c[9,1] + 126 delta[8,9,1] - 19 delta[9,8,1] <= 51.5
 PM[9,0,0]: - c[0,0] + c[9,0] - 93 delta[0,9,0] + 52 delta[9,0,0] <= 20
 PM[9,0,1]: - c[0,1] + c[9,1] - 61 delta[0,9,1] + 84 delta[9,0,1] <= 49
 PM[9,1,0]: - c[1,0] + c[9,0] - 90 delta[1,9,0] + 55 delta[9,1,0] <= 35
 PM[9,1,1]: - c[1,1] + c[9,1] - 66 delta[1,9,1] + 79 delta[9,1,1] <= 51
 PM[9,2,0]: - c[2,0] + c[9,0] - 92 delta[2,9,0] + 53 delta[9,2,0] <= 26.5
 PM[9,2,1]: - c[2,1] + c[9,1] - 79 delta[2,9,1] + 66 delta[9,2,1] <= 44.5
 PM[9,3,0]: - c[3,0] + c[9,0] - 95 delta[3,9,0] + 50 delta[9,3,0] <= 20
 PM[9,3,1]: - c[3,1] + c[9,1] - 60 delta[3,9,1] + 85 delta[9,3,1] <= 54
 PM[9,4,0]: - c[4,0] + c[9,0] - 41 delta[4,9,0] + 104 delta[9,4,0] <= 49.5
 PM[9,4,1]: - c[4,1] + c[9,1] - 48 delta[4,9,1] + 97 delta[9,4,1] <= 60
 PM[9,5,0]: - c[5,0] + c[9,0] - 52 delta[5,9,0] + 93 delta[9,5,0] <= 58
 PM[9,5,1]: - c[5,1] + c[9,1] - 73 delta[5,9,1] + 72 delta[9,5,1] <= 47.5
 PM[9,6,0]: - c[6,0] + c[9,0] - 70 delta[6,9,0] + 75 delta[9,6,0] <= 37
 PM[9,6,1]: - c[6,1] + c[9,1] - 77 delta[6,9,1] + 68 delta[9,6,1] <= 45.5
 PM[9,7,0]: - c[7,0] + c[9,0] - 47 delta[7,9,0] + 98 delta[9,7,0] <= 51
 PM[9,7,1]: - c[7,1] + c[9,1] - 58 delta[7,9,1] + 87 delta[9,7,1] <= 55
 PM[9,8,0]: - c[8,0] + c[9,0] + 145 delta[9,8,0] <= 93
 PM[9,8,1]: - c[8,1] + c[9,1] - 19 delta[8,9,1] + 126 delta[9,8,1] <= 74.5
 tight[0,1,0]: delta[0,1,0] + delta[1,0,0] <= 1
 tight[0,1,1]: delta[0,1,1] + delta[1,0,1] <= 1
 tight[0,2,0]: delta[0,2,0] + delta[2,0,0] <= 1
 tight[0,2,1]: delta[0,2,1] + delta[2,0,1] <= 1
 tight[0,3,0]: delta[0,3,0] + delta[3,0,0] <= 1
 tight[0,3,1]: delta[0,3,1] + delta[3,0,1] <= 1
 tight[0,4,0]: delta[0,4,0] + delta[4,0,0] <= 1
 tight[0,4,1]: delta[0,4,1] + delta[4,0,1] <= 1
 tight[0,5,0]: delta[0,5,0] + delta[5,0,0] <= 1
 tight[0,5,1]: delta[0,5,1] + delta[5,0,1] <= 1
 tight[0,6,0]: delta[0,6,0] + delta[6,0,0] <= 1
 tight[0,6,1]: delta[0,6,1] + delta[6,0,1] <= 1
 tight[0,7,0]: delta[0,7,0] + delta[7,0,0] <= 1
 tight[0,7,1]: delta[0,7,1] + delta[7,0,1] <= 1
 tight[0,8,0]: delta[0,8,0] + delta[8,0,0] <= 1
 tight[0,8,1]: delta[0,8,1] + delta[8,0,1] <= 1
 tight[0,9,0]: delta[0,9,0] + delta[9,0,0] <= 1
 tight[0,9,1]: delta[0,9,1] + delta[9,0,1] <= 1
 tight[1,2,0]: delta[1,2,0] + delta[2,1,0] <= 1
 tight[1,2,1]: delta[1,2,1] + delta[2,1,1] <= 1
 tight[1,3,0]: delta[1,3,0] + delta[3,1,0] <= 1
 tight[1,3,1]: delta[1,3,1] + delta[3,1,1] <= 1
 tight[1,4,0]: delta[1,4,0] + delta[4,1,0] <= 1
 tight[1,4,1]: delta[1,4,1] + delta[4,1,1] <= 1
 tight[1,5,0]: delta[1,5,0] + delta[5,1,0] <= 1
 tight[1,5,1]: delta[1,5,1] + delta[5,1,1] <= 1
 tight[1,6,0]: delta[1,6,0] + delta[6,1,0] <= 1
 tight[1,6,1]: delta[1,6,1] + delta[6,1,1] <= 1
 tight[1,7,0]: delta[1,7,0] + delta[7,1,0] <= 1
 tight[1,7,1]: delta[1,7,1] + delta[7,1,1] <= 1
 tight[1,8,0]: delta[1,8,0] + delta[8,1,0] <= 1
 tight[1,8,1]: delta[1,8,1] + delta[8,1,1] <= 1
 tight[1,9,0]: delta[1,9,0] + delta[9,1,0] <= 1
 tight[1,9,1]: delta[1,9,1] + delta[9,1,1] <= 1
 tight[2,3,0]: delta[2,3,0] + delta[3,2,0] <= 1
 tight[2,3,1]: delta[2,3,1] + delta[3,2,1] <= 1
 tight[2,4,0]: delta[2,4,0] + delta[4,2,0] <= 1
 tight[2,4,1]: delta[2,4,1] + delta[4,2,1] <= 1
 tight[2,5,0]: delta[2,5,0] + delta[5,2,0] <= 1
 tight[2,5,1]: delta[2,5,1] + delta[5,2,1] <= 1
 tight[2,6,0]: delta[2,6,0] + delta[6,2,0] <= 1
 tight[2,6,1]: delta[2,6,1] + delta[6,2,1] <= 1
 tight[2,7,0]: delta[2,7,0] + delta[7,2,0] <= 1
 tight[2,7,1]: delta[2,7,1] + delta[7,2,1] <= 1
 tight[2,8,0]: delta[2,8,0] + delta[8,2,0] <= 1
 tight[2,8,1]: delta[2,8,1] + delta[8,2,1] <= 1
 tight[2,9,0]: delta[2,9,0] + delta[9,2,0] <= 1
 tight[2,9,1]: delta[2,9,1] + delta[9,2,1] <= 1
 tight[3,4,0]: delta[3,4,0] + delta[4,3,0] <= 1
 tight[3,4,1]: delta[3,4,1] + delta[4,3,1] <= 1
 tight[3,5,0]: delta[3,5,0] + delta[5,3,0] <= 1
 tight[3,5,1]: delta[3,5,1] + delta[5,3,1] <= 1
 tight[3,6,0]: delta[3,6,0] + delta[6,3,0] <= 1
 tight[3,6,1]: delta[3,6,1] + delta[6,3,1] <= 1
 tight[3,7,0]: delta[3,7,0] + delta[7,3,0] <= 1
 tight[3,7,1]: delta[3,7,1] + delta[7,3,1] <= 1
 tight[3,8,0]: delta[3,8,0] + delta[8,3,0] <= 1
 tight[3,8,1]: delta[3,8,1] + delta[8,3,1] <= 1
 tight[3,9,0]: delta[3,9,0] + delta[9,3,0] <= 1
 tight[3,9,1]: delta[3,9,1] + delta[9,3,1] <= 1
 tight[4,5,0]: delta[4,5,0] + delta[5,4,0] <= 1
 tight[4,5,1]: delta[4,5,1] + delta[5,4,1] <= 1
 tight[4,6,0]: delta[4,6,0] + delta[6,4,0] <= 1
 tight[4,6,1]: delta[4,6,1] + delta[6,4,1] <= 1
 tight[4,7,0]: delta[4,7,0] + delta[7,4,0] <= 1
 tight[4,7,1]: delta[4,7,1] + delta[7,4,1] <= 1
 tight[4,8,0]: delta[4,8,0] + delta[8,4,0] <= 1
 tight[4,8,1]: delta[4,8,1] + delta[8,4,1] <= 1
 tight[4,9,0]: delta[4,9,0] + delta[9,4,0] <= 1
 tight[4,9,1]: delta[4,9,1] + delta[9,4,1] <= 1
 tight[5,6,0]: delta[5,6,0] + delta[6,5,0] <= 1
 tight[5,6,1]: delta[5,6,1] + delta[6,5,1] <= 1
 tight[5,7,0]: delta[5,7,0] + delta[7,5,0] <= 1
 tight[5,7,1]: delta[5,7,1] + delta[7,5,1] <= 1
 tight[5,8,0]: delta[5,8,0] + delta[8,5,0] <= 1
 tight[5,8,1]: delta[5,8,1] + delta[8,5,1] <= 1
 tight[5,9,0]: delta[5,9,0] + delta[9,5,0] <= 1
 tight[5,9,1]: delta[5,9,1] + delta[9,5,1] <= 1
 tight[6,7,0]: delta[6,7,0] + delta[7,6,0] <= 1
 tight[6,7,1]: delta[6,7,1] + delta[7,6,1] <= 1
 tight[6,8,0]: delta[6,8,0] + delta[8,6,0] <= 1
 tight[6,8,1]: delta[6,8,1] + delta[8,6,1] <= 1
 tight[6,9,0]: delta[6,9,0] + delta[9,6,0] <= 1
 tight[6,9,1]: delta[6,9,1] + delta[9,6,1] <= 1
 tight[7,8,0]: delta[7,8,0] + delta[8,7,0] <= 1
 tight[7,8,1]: delta[7,8,1] + delta[8,7,1] <= 1
 tight[7,9,0]: delta[7,9,0] + delta[9,7,0] <= 1
 tight[7,9,1]: delta[7,9,1] + delta[9,7,1] <= 1
 tight[8,9,0]: delta[8,9,0] + delta[9,8,0] <= 1
 tight[8,9,1]: delta[8,9,1] + delta[9,8,1] <= 1
 S1[0,1]: delta[0,1,0] + delta[0,1,1] + delta[1,0,0] + delta[1,0,1] >= 1
 S1[0,2]: delta[0,2,0] + delta[0,2,1] + delta[2,0,0] + delta[2,0,1] >= 1
 S1[0,3]: delta[0,3,0] + delta[0,3,1] + delta[3,0,0] + delta[3,0,1] >= 1
 S1[0,4]: delta[0,4,0] + delta[0,4,1] + delta[4,0,0] + delta[4,0,1] >= 1
 S1[0,5]: delta[0,5,0] + delta[0,5,1] + delta[5,0,0] + delta[5,0,1] >= 1
 S1[0,6]: delta[0,6,0] + delta[0,6,1] + delta[6,0,0] + delta[6,0,1] >= 1
 S1[0,7]: delta[0,7,0] + delta[0,7,1] + delta[7,0,0] + delta[7,0,1] >= 1
 S1[0,8]: delta[0,8,0] + delta[0,8,1] + delta[8,0,0] + delta[8,0,1] >= 1
 S1[0,9]: delta[0,9,0] + delta[0,9,1] + delta[9,0,0] + delta[9,0,1] >= 1
 S1[1,2]: delta[1,2,0] + delta[1,2,1] + delta[2,1,0] + delta[2,1,1] >= 1
 S1[1,3]: delta[1,3,0] + delta[1,3,1] + delta[3,1,0] + delta[3,1,1] >= 1
 S1[1,4]: delta[1,4,0] + delta[1,4,1] + delta[4,1,0] + delta[4,1,1] >= 1
 S1[1,5]: delta[1,5,0] + delta[1,5,1] + delta[5,1,0] + delta[5,1,1] >= 1
 S1[1,6]: delta[1,6,0] + delta[1,6,1] + delta[6,1,0] + delta[6,1,1] >= 1
 S1[1,7]: delta[1,7,0] + delta[1,7,1] + delta[7,1,0] + delta[7,1,1] >= 1
 S1[1,8]: delta[1,8,0] + delta[1,8,1] + delta[8,1,0] + delta[8,1,1] >= 1
 S1[1,9]: delta[1,9,0] + delta[1,9,1] + delta[9,1,0] + delta[9,1,1] >= 1
 S1[2,3]: delta[2,3,0] + delta[2,3,1] + delta[3,2,0] + delta[3,2,1] >= 1
 S1[2,4]: delta[2,4,0] + delta[2,4,1] + delta[4,2,0] + delta[4,2,1] >= 1
 S1[2,5]: delta[2,5,0] + delta[2,5,1] + delta[5,2,0] + delta[5,2,1] >= 1
 S1[2,6]: delta[2,6,0] + delta[2,6,1] + delta[6,2,0] + delta[6,2,1] >= 1
 S1[2,7]: delta[2,7,0] + delta[2,7,1] + delta[7,2,0] + delta[7,2,1] >= 1
 S1[2,8]: delta[2,8,0] + delta[2,8,1] + delta[8,2,0] + delta[8,2,1] >= 1
 S1[2,9]: delta[2,9,0] + delta[2,9,1] + delta[9,2,0] + delta[9,2,1] >= 1
 S1[3,4]: delta[3,4,0] + delta[3,4,1] + delta[4,3,0] + delta[4,3,1] >= 1
 S1[3,5]: delta[3,5,0] + delta[3,5,1] + delta[5,3,0] + delta[5,3,1] >= 1
 S1[3,6]: delta[3,6,0] + delta[3,6,1] + delta[6,3,0] + delta[6,3,1] >= 1
 S1[3,7]: delta[3,7,0] + delta[3,7,1] + delta[7,3,0] + delta[7,3,1] >= 1
 S1[3,8]: delta[3,8,0] + delta[3,8,1] + delta[8,3,0] + delta[8,3,1] >= 1
 S1[3,9]: delta[3,9,0] + delta[3,9,1] + delta[9,3,0] + delta[9,3,1] >= 1
 S1[4,5]: delta[4,5,0] + delta[4,5,1] + delta[5,4,0] + delta[5,4,1] >= 1
 S1[4,6]: delta[4,6,0] + delta[4,6,1] + delta[6,4,0] + delta[6,4,1] >= 1
 S1[4,7]: delta[4,7,0] + delta[4,7,1] + delta[7,4,0] + delta[7,4,1] >= 1
 S1[4,8]: delta[4,8,0] + delta[4,8,1] + delta[8,4,0] + delta[8,4,1] >= 1
 S1[4,9]: delta[4,9,0] + delta[4,9,1] + delta[9,4,0] + delta[9,4,1] >= 1
 S1[5,6]: delta[5,6,0] + delta[5,6,1] + delta[6,5,0] + delta[6,5,1] >= 1
 S1[5,7]: delta[5,7,0] + delta[5,7,1] + delta[7,5,0] + delta[7,5,1] >= 1
 S1[5,8]: delta[5,8,0] + delta[5,8,1] + delta[8,5,0] + delta[8,5,1] >= 1
 S1[5,9]: delta[5,9,0] + delta[5,9,1] + delta[9,5,0] + delta[9,5,1] >= 1
 S1[6,7]: delta[6,7,0] + delta[6,7,1] + delta[7,6,0] + delta[7,6,1] >= 1
 S1[6,8]: delta[6,8,0] + delta[6,8,1] + delta[8,6,0] + delta[8,6,1] >= 1
 S1[6,9]: delta[6,9,0] + delta[6,9,1] + delta[9,6,0] + delta[9,6,1] >= 1
 S1[7,8]: delta[7,8,0] + delta[7,8,1] + delta[8,7,0] + delta[8,7,1] >= 1
 S1[7,9]: delta[7,9,0] + delta[7,9,1] + delta[9,7,0] + delta[9,7,1] >= 1
 S1[8,9]: delta[8,9,0] + delta[8,9,1] + delta[9,8,0] + delta[9,8,1] >= 1
Bounds
 20 <= c[0,0] <= 137
 19 <= c[0,1] <= 135
 8 <= c[1,0] <= 122
 12 <= c[1,1] <= 133
 14.5 <= c[2,0] <= 130.5
 5.5 <= c[2,1] <= 139.5
 18 <= c[3,0] <= 137
 15 <= c[3,1] <= 130
 42.5 <= c[4,0] <= 107.5
 21 <= c[4,1] <= 124
 23 <= c[5,0] <= 99
 8.5 <= c[5,1] <= 136.5
 26 <= c[6,0] <= 120
 6.5 <= c[6,1] <= 138.5
 35 <= c[7,0] <= 106
 16 <= c[7,1] <= 113
 40 <= c[8,0] <= 64
 35.5 <= c[8,1] <= 109.5
 12 <= c[9,0] <= 133
 39 <= c[9,1] <= 129
 39 <= h <= 145
Binaries
 delta[0,1,0] delta[0,1,1] delta[0,2,0] delta[0,2,1] delta[0,3,0]
 delta[0,3,1] delta[0,4,0] delta[0,4,1] delta[0,5,0] delta[0,5,1]
 delta[0,6,0] delta[0,6,1] delta[0,7,0] delta[0,7,1] delta[0,8,0]
 delta[0,8,1] delta[0,9,0] delta[0,9,1] delta[1,0,0] delta[1,0,1]
 delta[1,2,0] delta[1,2,1] delta[1,3,0] delta[1,3,1] delta[1,4,0]
 delta[1,4,1] delta[1,5,0] delta[1,5,1] delta[1,6,0] delta[1,6,1]
 delta[1,7,0] delta[1,7,1] delta[1,8,0] delta[1,8,1] delta[1,9,0]
 delta[1,9,1] delta[2,0,0] delta[2,0,1] delta[2,1,0] delta[2,1,1]
 delta[2,3,0] delta[2,3,1] delta[2,4,0] delta[2,4,1] delta[2,5,0]
 delta[2,5,1] delta[2,6,0] delta[2,6,1] delta[2,7,0] delta[2,7,1]
 delta[2,8,0] delta[2,8,1] delta[2,9,0] delta[2,9,1] delta[3,0,0]
 delta[3,0,1] delta[3,1,0] delta[3,1,1] delta[3,2,0] delta[3,2,1]
 delta[3,4,0] delta[3,4,1] delta[3,5,0] delta[3,5,1] delta[3,6,0]
 delta[3,6,1] delta[3,7,0] delta[3,7,1] delta[3,8,0] delta[3,8,1]
 delta[3,9,0] delta[3,9,1] delta[4,0,0] delta[4,0,1] delta[4,1,0]
 delta[4,1,1] delta[4,2,0] delta[4,2,1] delta[4,3,0] delta[4,3,1]
 delta[4,5,0] delta[4,5,1] delta[4,6,0] delta[4,6,1] delta[4,7,0]
 delta[4,7,1] delta[4,8,0] delta[4,8,1] delta[4,9,0] delta[4,9,1]
 delta[5,0,0] delta[5,0,1] delta[5,1,0] delta[5,1,1] delta[5,2,0]
 delta[5,2,1] delta[5,3,0] delta[5,3,1] delta[5,4,0] delta[5,4,1]
 delta[5,6,0] delta[5,6,1] delta[5,7,0] delta[5,7,1] delta[5,8,0]
 delta[5,8,1] delta[5,9,0] delta[5,9,1] delta[6,0,0] delta[6,0,1]
 delta[6,1,0] delta[6,1,1] delta[6,2,0] delta[6,2,1] delta[6,3,0]
 delta[6,3,1] delta[6,4,0] delta[6,4,1] delta[6,5,0] delta[6,5,1]
 delta[6,7,0] delta[6,7,1] delta[6,8,0] delta[6,8,1] delta[6,9,0]
 delta[6,9,1] delta[7,0,0] delta[7,0,1] delta[7,1,0] delta[7,1,1]
 delta[7,2,0] delta[7,2,1] delta[7,3,0] delta[7,3,1] delta[7,4,0]
 delta[7,4,1] delta[7,5,0] delta[7,5,1] delta[7,6,0] delta[7,6,1]
 delta[7,8,0] delta[7,8,1] delta[7,9,0] delta[7,9,1] delta[8,0,0]
 delta[8,0,1] delta[8,1,0] delta[8,1,1] delta[8,2,0] delta[8,2,1]
 delta[8,3,0] delta[8,3,1] delta[8,4,0] delta[8,4,1] delta[8,5,0]
 delta[8,5,1] delta[8,6,0] delta[8,6,1] delta[8,7,0] delta[8,7,1]
 delta[8,9,0] delta[8,9,1] delta[9,0,0] delta[9,0,1] delta[9,1,0]
 delta[9,1,1] delta[9,2,0] delta[9,2,1] delta[9,3,0] delta[9,3,1]
 delta[9,4,0] delta[9,4,1] delta[9,5,0] delta[9,5,1] delta[9,6,0]
 delta[9,6,1] delta[9,7,0] delta[9,7,1] delta[9,8,0] delta[9,8,1]
End
